db/data/2701314089273013100010782211012989717406.z3.out
-------------------
2500.217327740
